p cnf 54 300
1 2 3 0
4 5 6 0
7 8 9 0
10 11 12 0
13 14 15 0
16 17 18 0
19 20 21 0
22 23 24 0
25 26 27 0
28 29 30 0
31 32 33 0
34 35 36 0
37 38 39 0
40 41 42 0
43 44 45 0
46 47 48 0
49 50 51 0
52 53 54 0
-1 -2 0
-1 -3 0
-2 -3 0
-4 -5 0
-4 -6 0
-5 -6 0
-7 -8 0
-7 -9 0
-8 -9 0
-10 -11 0
-10 -12 0
-11 -12 0
-13 -14 0
-13 -15 0
-14 -15 0
-16 -17 0
-16 -18 0
-17 -18 0
-19 -20 0
-19 -21 0
-20 -21 0
-22 -23 0
-22 -24 0
-23 -24 0
-25 -26 0
-25 -27 0
-26 -27 0
-28 -29 0
-28 -30 0
-29 -30 0
-31 -32 0
-31 -33 0
-32 -33 0
-34 -35 0
-34 -36 0
-35 -36 0
-37 -38 0
-37 -39 0
-38 -39 0
-40 -41 0
-40 -42 0
-41 -42 0
-43 -44 0
-43 -45 0
-44 -45 0
-46 -47 0
-46 -48 0
-47 -48 0
-49 -50 0
-49 -51 0
-50 -51 0
-52 -53 0
-52 -54 0
-53 -54 0
-1 -7 0
-2 -8 0
-3 -9 0
-1 -10 0
-2 -11 0
-3 -12 0
-1 -16 0
-2 -17 0
-3 -18 0
-1 -19 0
-2 -20 0
-3 -21 0
-1 -34 0
-2 -35 0
-3 -36 0
-1 -40 0
-2 -41 0
-3 -42 0
-1 -46 0
-2 -47 0
-3 -48 0
-1 -49 0
-2 -50 0
-3 -51 0
-4 -10 0
-5 -11 0
-6 -12 0
-4 -16 0
-5 -17 0
-6 -18 0
-4 -19 0
-5 -20 0
-6 -21 0
-4 -22 0
-5 -23 0
-6 -24 0
-4 -31 0
-5 -32 0
-6 -33 0
-4 -40 0
-5 -41 0
-6 -42 0
-4 -43 0
-5 -44 0
-6 -45 0
-4 -46 0
-5 -47 0
-6 -48 0
-7 -10 0
-8 -11 0
-9 -12 0
-7 -16 0
-8 -17 0
-9 -18 0
-7 -22 0
-8 -23 0
-9 -24 0
-7 -25 0
-8 -26 0
-9 -27 0
-7 -28 0
-8 -29 0
-9 -30 0
-7 -34 0
-8 -35 0
-9 -36 0
-7 -37 0
-8 -38 0
-9 -39 0
-7 -40 0
-8 -41 0
-9 -42 0
-7 -46 0
-8 -47 0
-9 -48 0
-7 -49 0
-8 -50 0
-9 -51 0
-10 -16 0
-11 -17 0
-12 -18 0
-10 -19 0
-11 -20 0
-12 -21 0
-10 -28 0
-11 -29 0
-12 -30 0
-10 -31 0
-11 -32 0
-12 -33 0
-10 -37 0
-11 -38 0
-12 -39 0
-10 -43 0
-11 -44 0
-12 -45 0
-10 -46 0
-11 -47 0
-12 -48 0
-10 -49 0
-11 -50 0
-12 -51 0
-13 -22 0
-14 -23 0
-15 -24 0
-13 -28 0
-14 -29 0
-15 -30 0
-13 -37 0
-14 -38 0
-15 -39 0
-13 -46 0
-14 -47 0
-15 -48 0
-16 -40 0
-17 -41 0
-18 -42 0
-16 -43 0
-17 -44 0
-18 -45 0
-16 -46 0
-17 -47 0
-18 -48 0
-16 -52 0
-17 -53 0
-18 -54 0
-19 -22 0
-20 -23 0
-21 -24 0
-19 -28 0
-20 -29 0
-21 -30 0
-19 -31 0
-20 -32 0
-21 -33 0
-19 -34 0
-20 -35 0
-21 -36 0
-19 -37 0
-20 -38 0
-21 -39 0
-19 -43 0
-20 -44 0
-21 -45 0
-19 -46 0
-20 -47 0
-21 -48 0
-19 -52 0
-20 -53 0
-21 -54 0
-22 -25 0
-23 -26 0
-24 -27 0
-22 -31 0
-23 -32 0
-24 -33 0
-22 -43 0
-23 -44 0
-24 -45 0
-25 -28 0
-26 -29 0
-27 -30 0
-25 -34 0
-26 -35 0
-27 -36 0
-25 -37 0
-26 -38 0
-27 -39 0
-25 -46 0
-26 -47 0
-27 -48 0
-25 -52 0
-26 -53 0
-27 -54 0
-28 -31 0
-29 -32 0
-30 -33 0
-28 -37 0
-29 -38 0
-30 -39 0
-28 -43 0
-29 -44 0
-30 -45 0
-28 -49 0
-29 -50 0
-30 -51 0
-31 -37 0
-32 -38 0
-33 -39 0
-31 -46 0
-32 -47 0
-33 -48 0
-31 -49 0
-32 -50 0
-33 -51 0
-34 -37 0
-35 -38 0
-36 -39 0
-34 -40 0
-35 -41 0
-36 -42 0
-34 -49 0
-35 -50 0
-36 -51 0
-37 -40 0
-38 -41 0
-39 -42 0
-37 -49 0
-38 -50 0
-39 -51 0
-37 -52 0
-38 -53 0
-39 -54 0
-40 -43 0
-41 -44 0
-42 -45 0
-40 -46 0
-41 -47 0
-42 -48 0
-40 -52 0
-41 -53 0
-42 -54 0
-46 -49 0
-47 -50 0
-48 -51 0
-49 -52 0
-50 -53 0
-51 -54 0
